; benchmark generated from python API
(set-info :status unknown)
(declare-fun cell_1_2 () Int)
(declare-fun cell_1_6 () Int)
(declare-fun cell_2_3 () Int)
(declare-fun cell_2_4 () Int)
(declare-fun cell_3_8 () Int)
(declare-fun cell_3_9 () Int)
(declare-fun cell_4_4 () Int)
(declare-fun cell_4_8 () Int)
(declare-fun cell_5_2 () Int)
(declare-fun cell_5_5 () Int)
(declare-fun cell_6_3 () Int)
(declare-fun cell_6_9 () Int)
(declare-fun cell_7_1 () Int)
(declare-fun cell_7_5 () Int)
(declare-fun cell_8_7 () Int)
(declare-fun cell_9_1 () Int)
(declare-fun cell_1_1 () Int)
(declare-fun cell_2_1 () Int)
(declare-fun cell_3_1 () Int)
(declare-fun cell_4_1 () Int)
(declare-fun cell_5_1 () Int)
(declare-fun cell_6_1 () Int)
(declare-fun cell_8_1 () Int)
(declare-fun cell_2_2 () Int)
(declare-fun cell_3_2 () Int)
(declare-fun cell_4_2 () Int)
(declare-fun cell_6_2 () Int)
(declare-fun cell_7_2 () Int)
(declare-fun cell_8_2 () Int)
(declare-fun cell_9_2 () Int)
(declare-fun cell_1_3 () Int)
(declare-fun cell_3_3 () Int)
(declare-fun cell_4_3 () Int)
(declare-fun cell_5_3 () Int)
(declare-fun cell_7_3 () Int)
(declare-fun cell_8_3 () Int)
(declare-fun cell_9_3 () Int)
(declare-fun cell_1_4 () Int)
(declare-fun cell_3_4 () Int)
(declare-fun cell_5_4 () Int)
(declare-fun cell_6_4 () Int)
(declare-fun cell_7_4 () Int)
(declare-fun cell_8_4 () Int)
(declare-fun cell_9_4 () Int)
(declare-fun cell_1_5 () Int)
(declare-fun cell_2_5 () Int)
(declare-fun cell_3_5 () Int)
(declare-fun cell_4_5 () Int)
(declare-fun cell_6_5 () Int)
(declare-fun cell_8_5 () Int)
(declare-fun cell_9_5 () Int)
(declare-fun cell_2_6 () Int)
(declare-fun cell_3_6 () Int)
(declare-fun cell_4_6 () Int)
(declare-fun cell_5_6 () Int)
(declare-fun cell_6_6 () Int)
(declare-fun cell_7_6 () Int)
(declare-fun cell_8_6 () Int)
(declare-fun cell_9_6 () Int)
(declare-fun cell_1_7 () Int)
(declare-fun cell_2_7 () Int)
(declare-fun cell_3_7 () Int)
(declare-fun cell_4_7 () Int)
(declare-fun cell_5_7 () Int)
(declare-fun cell_6_7 () Int)
(declare-fun cell_7_7 () Int)
(declare-fun cell_9_7 () Int)
(declare-fun cell_1_8 () Int)
(declare-fun cell_2_8 () Int)
(declare-fun cell_5_8 () Int)
(declare-fun cell_6_8 () Int)
(declare-fun cell_7_8 () Int)
(declare-fun cell_8_8 () Int)
(declare-fun cell_9_8 () Int)
(declare-fun cell_1_9 () Int)
(declare-fun cell_2_9 () Int)
(declare-fun cell_4_9 () Int)
(declare-fun cell_5_9 () Int)
(declare-fun cell_7_9 () Int)
(declare-fun cell_8_9 () Int)
(declare-fun cell_9_9 () Int)
(assert
 (= cell_1_2 2))
(assert
 (= cell_1_6 1))
(assert
 (= cell_2_3 1))
(assert
 (= cell_2_4 2))
(assert
 (= cell_3_8 1))
(assert
 (= cell_3_9 2))
(assert
 (= cell_4_4 1))
(assert
 (= cell_4_8 2))
(assert
 (= cell_5_2 1))
(assert
 (= cell_5_5 2))
(assert
 (= cell_6_3 2))
(assert
 (= cell_6_9 1))
(assert
 (= cell_7_1 2))
(assert
 (= cell_7_5 1))
(assert
 (= cell_8_7 1))
(assert
 (= cell_9_1 1))
(assert
 (let (($x148 (= cell_1_1 9)))
 (let (($x147 (= cell_1_1 8)))
 (let (($x146 (= cell_1_1 7)))
 (let (($x145 (= cell_1_1 6)))
 (let (($x144 (= cell_1_1 5)))
 (let (($x143 (= cell_1_1 4)))
 (let (($x162 (= cell_1_1 3)))
 (let (($x161 (= cell_1_1 2)))
 (let (($x160 (= cell_1_1 1)))
 (or $x160 $x161 $x162 $x143 $x144 $x145 $x146 $x147 $x148)))))))))))
(assert
 (let (($x158 (= cell_2_1 9)))
 (let (($x157 (= cell_2_1 8)))
 (let (($x156 (= cell_2_1 7)))
 (let (($x155 (= cell_2_1 6)))
 (let (($x154 (= cell_2_1 5)))
 (let (($x153 (= cell_2_1 4)))
 (let (($x172 (= cell_2_1 3)))
 (let (($x171 (= cell_2_1 2)))
 (let (($x170 (= cell_2_1 1)))
 (or $x170 $x171 $x172 $x153 $x154 $x155 $x156 $x157 $x158)))))))))))
(assert
 (let (($x168 (= cell_3_1 9)))
 (let (($x167 (= cell_3_1 8)))
 (let (($x166 (= cell_3_1 7)))
 (let (($x165 (= cell_3_1 6)))
 (let (($x164 (= cell_3_1 5)))
 (let (($x163 (= cell_3_1 4)))
 (let (($x182 (= cell_3_1 3)))
 (let (($x181 (= cell_3_1 2)))
 (let (($x180 (= cell_3_1 1)))
 (or $x180 $x181 $x182 $x163 $x164 $x165 $x166 $x167 $x168)))))))))))
(assert
 (let (($x178 (= cell_4_1 9)))
 (let (($x177 (= cell_4_1 8)))
 (let (($x176 (= cell_4_1 7)))
 (let (($x175 (= cell_4_1 6)))
 (let (($x174 (= cell_4_1 5)))
 (let (($x173 (= cell_4_1 4)))
 (let (($x192 (= cell_4_1 3)))
 (let (($x191 (= cell_4_1 2)))
 (let (($x190 (= cell_4_1 1)))
 (or $x190 $x191 $x192 $x173 $x174 $x175 $x176 $x177 $x178)))))))))))
(assert
 (let (($x189 (= cell_5_1 9)))
 (let (($x188 (= cell_5_1 8)))
 (let (($x187 (= cell_5_1 7)))
 (let (($x186 (= cell_5_1 6)))
 (let (($x185 (= cell_5_1 5)))
 (let (($x184 (= cell_5_1 4)))
 (let (($x183 (= cell_5_1 3)))
 (let (($x201 (= cell_5_1 2)))
 (let (($x200 (= cell_5_1 1)))
 (or $x200 $x201 $x183 $x184 $x185 $x186 $x187 $x188 $x189)))))))))))
(assert
 (let (($x198 (= cell_6_1 9)))
 (let (($x197 (= cell_6_1 8)))
 (let (($x196 (= cell_6_1 7)))
 (let (($x195 (= cell_6_1 6)))
 (let (($x194 (= cell_6_1 5)))
 (let (($x122 (= cell_6_1 4)))
 (let (($x193 (= cell_6_1 3)))
 (let (($x211 (= cell_6_1 2)))
 (let (($x210 (= cell_6_1 1)))
 (or $x210 $x211 $x193 $x122 $x194 $x195 $x196 $x197 $x198)))))))))))
(assert
 (let (($x151 (= cell_7_1 2)))
 (or (= cell_7_1 1) $x151 (= cell_7_1 3) (= cell_7_1 4) (= cell_7_1 5) (= cell_7_1 6) (= cell_7_1 7) (= cell_7_1 8) (= cell_7_1 9))))
(assert
 (let (($x217 (= cell_8_1 9)))
 (let (($x216 (= cell_8_1 8)))
 (let (($x215 (= cell_8_1 7)))
 (let (($x214 (= cell_8_1 6)))
 (let (($x213 (= cell_8_1 5)))
 (let (($x212 (= cell_8_1 4)))
 (let (($x125 (= cell_8_1 3)))
 (let (($x229 (= cell_8_1 2)))
 (let (($x228 (= cell_8_1 1)))
 (or $x228 $x229 $x125 $x212 $x213 $x214 $x215 $x216 $x217)))))))))))
(assert
 (let (($x159 (= cell_9_1 1)))
 (or $x159 (= cell_9_1 2) (= cell_9_1 3) (= cell_9_1 4) (= cell_9_1 5) (= cell_9_1 6) (= cell_9_1 7) (= cell_9_1 8) (= cell_9_1 9))))
(assert
 (let (($x40 (= cell_1_2 2)))
 (or (= cell_1_2 1) $x40 (= cell_1_2 3) (= cell_1_2 4) (= cell_1_2 5) (= cell_1_2 6) (= cell_1_2 7) (= cell_1_2 8) (= cell_1_2 9))))
(assert
 (let (($x244 (= cell_2_2 9)))
 (let (($x243 (= cell_2_2 8)))
 (let (($x242 (= cell_2_2 7)))
 (let (($x241 (= cell_2_2 6)))
 (let (($x240 (= cell_2_2 5)))
 (let (($x259 (= cell_2_2 4)))
 (let (($x258 (= cell_2_2 3)))
 (let (($x237 (= cell_2_2 2)))
 (let (($x236 (= cell_2_2 1)))
 (or $x236 $x237 $x258 $x259 $x240 $x241 $x242 $x243 $x244)))))))))))
(assert
 (let (($x254 (= cell_3_2 9)))
 (let (($x253 (= cell_3_2 8)))
 (let (($x252 (= cell_3_2 7)))
 (let (($x251 (= cell_3_2 6)))
 (let (($x250 (= cell_3_2 5)))
 (let (($x268 (= cell_3_2 4)))
 (let (($x267 (= cell_3_2 3)))
 (let (($x247 (= cell_3_2 2)))
 (let (($x246 (= cell_3_2 1)))
 (or $x246 $x247 $x267 $x268 $x250 $x251 $x252 $x253 $x254)))))))))))
(assert
 (let (($x263 (= cell_4_2 9)))
 (let (($x262 (= cell_4_2 8)))
 (let (($x261 (= cell_4_2 7)))
 (let (($x260 (= cell_4_2 6)))
 (let (($x118 (= cell_4_2 5)))
 (let (($x278 (= cell_4_2 4)))
 (let (($x277 (= cell_4_2 3)))
 (let (($x257 (= cell_4_2 2)))
 (let (($x256 (= cell_4_2 1)))
 (or $x256 $x257 $x277 $x278 $x118 $x260 $x261 $x262 $x263)))))))))))
(assert
 (let (($x129 (= cell_5_2 1)))
 (or $x129 (= cell_5_2 2) (= cell_5_2 3) (= cell_5_2 4) (= cell_5_2 5) (= cell_5_2 6) (= cell_5_2 7) (= cell_5_2 8) (= cell_5_2 9))))
(assert
 (let (($x282 (= cell_6_2 9)))
 (let (($x281 (= cell_6_2 8)))
 (let (($x280 (= cell_6_2 7)))
 (let (($x279 (= cell_6_2 6)))
 (let (($x934 (= cell_6_2 5)))
 (let (($x298 (= cell_6_2 4)))
 (let (($x276 (= cell_6_2 3)))
 (let (($x275 (= cell_6_2 2)))
 (let (($x274 (= cell_6_2 1)))
 (or $x274 $x275 $x276 $x298 $x934 $x279 $x280 $x281 $x282)))))))))))
(assert
 (let (($x293 (= cell_7_2 9)))
 (let (($x292 (= cell_7_2 8)))
 (let (($x291 (= cell_7_2 7)))
 (let (($x290 (= cell_7_2 6)))
 (let (($x289 (= cell_7_2 5)))
 (let (($x937 (= cell_7_2 4)))
 (let (($x286 (= cell_7_2 3)))
 (let (($x285 (= cell_7_2 2)))
 (let (($x284 (= cell_7_2 1)))
 (or $x284 $x285 $x286 $x937 $x289 $x290 $x291 $x292 $x293)))))))))))
(assert
 (let (($x304 (= cell_8_2 9)))
 (let (($x303 (= cell_8_2 8)))
 (let (($x302 (= cell_8_2 7)))
 (let (($x301 (= cell_8_2 6)))
 (let (($x300 (= cell_8_2 5)))
 (let (($x299 (= cell_8_2 4)))
 (let (($x297 (= cell_8_2 3)))
 (let (($x296 (= cell_8_2 2)))
 (let (($x295 (= cell_8_2 1)))
 (or $x295 $x296 $x297 $x299 $x300 $x301 $x302 $x303 $x304)))))))))))
(assert
 (let (($x307 (= cell_9_2 2)))
 (let (($x306 (= cell_9_2 1)))
 (or $x306 $x307 (= cell_9_2 3) (= cell_9_2 4) (= cell_9_2 5) (= cell_9_2 6) (= cell_9_2 7) (= cell_9_2 8) (= cell_9_2 9)))))
(assert
 (let (($x323 (= cell_1_3 9)))
 (let (($x322 (= cell_1_3 8)))
 (let (($x321 (= cell_1_3 7)))
 (let (($x320 (= cell_1_3 6)))
 (let (($x319 (= cell_1_3 5)))
 (let (($x112 (= cell_1_3 4)))
 (let (($x318 (= cell_1_3 3)))
 (let (($x317 (= cell_1_3 2)))
 (let (($x316 (= cell_1_3 1)))
 (or $x316 $x317 $x318 $x112 $x319 $x320 $x321 $x322 $x323)))))))))))
(assert
 (let (($x141 (= cell_2_3 1)))
 (or $x141 (= cell_2_3 2) (= cell_2_3 3) (= cell_2_3 4) (= cell_2_3 5) (= cell_2_3 6) (= cell_2_3 7) (= cell_2_3 8) (= cell_2_3 9))))
(assert
 (let (($x343 (= cell_3_3 9)))
 (let (($x342 (= cell_3_3 8)))
 (let (($x341 (= cell_3_3 7)))
 (let (($x340 (= cell_3_3 6)))
 (let (($x339 (= cell_3_3 5)))
 (let (($x337 (= cell_3_3 4)))
 (let (($x336 (= cell_3_3 3)))
 (let (($x335 (= cell_3_3 2)))
 (let (($x334 (= cell_3_3 1)))
 (or $x334 $x335 $x336 $x337 $x339 $x340 $x341 $x342 $x343)))))))))))
(assert
 (let (($x353 (= cell_4_3 9)))
 (let (($x352 (= cell_4_3 8)))
 (let (($x351 (= cell_4_3 7)))
 (let (($x350 (= cell_4_3 6)))
 (let (($x349 (= cell_4_3 5)))
 (let (($x328 (= cell_4_3 4)))
 (let (($x347 (= cell_4_3 3)))
 (let (($x346 (= cell_4_3 2)))
 (let (($x345 (= cell_4_3 1)))
 (or $x345 $x346 $x347 $x328 $x349 $x350 $x351 $x352 $x353)))))))))))
(assert
 (let (($x362 (= cell_5_3 9)))
 (let (($x361 (= cell_5_3 8)))
 (let (($x360 (= cell_5_3 7)))
 (let (($x359 (= cell_5_3 6)))
 (let (($x120 (= cell_5_3 5)))
 (let (($x338 (= cell_5_3 4)))
 (let (($x357 (= cell_5_3 3)))
 (let (($x356 (= cell_5_3 2)))
 (let (($x355 (= cell_5_3 1)))
 (or $x355 $x356 $x357 $x338 $x120 $x359 $x360 $x361 $x362)))))))))))
(assert
 (let (($x126 (= cell_6_3 2)))
 (or (= cell_6_3 1) $x126 (= cell_6_3 3) (= cell_6_3 4) (= cell_6_3 5) (= cell_6_3 6) (= cell_6_3 7) (= cell_6_3 8) (= cell_6_3 9))))
(assert
 (let (($x381 (= cell_7_3 9)))
 (let (($x380 (= cell_7_3 8)))
 (let (($x379 (= cell_7_3 7)))
 (let (($x378 (= cell_7_3 6)))
 (let (($x358 (= cell_7_3 5)))
 (let (($x376 (= cell_7_3 4)))
 (let (($x375 (= cell_7_3 3)))
 (let (($x374 (= cell_7_3 2)))
 (let (($x373 (= cell_7_3 1)))
 (or $x373 $x374 $x375 $x376 $x358 $x378 $x379 $x380 $x381)))))))))))
(assert
 (let (($x391 (= cell_8_3 9)))
 (let (($x390 (= cell_8_3 8)))
 (let (($x389 (= cell_8_3 7)))
 (let (($x388 (= cell_8_3 6)))
 (let (($x367 (= cell_8_3 5)))
 (let (($x386 (= cell_8_3 4)))
 (let (($x385 (= cell_8_3 3)))
 (let (($x384 (= cell_8_3 2)))
 (let (($x383 (= cell_8_3 1)))
 (or $x383 $x384 $x385 $x386 $x367 $x388 $x389 $x390 $x391)))))))))))
(assert
 (let (($x394 (= cell_9_3 2)))
 (let (($x393 (= cell_9_3 1)))
 (or $x393 $x394 (= cell_9_3 3) (= cell_9_3 4) (= cell_9_3 5) (= cell_9_3 6) (= cell_9_3 7) (= cell_9_3 8) (= cell_9_3 9)))))
(assert
 (let (($x410 (= cell_1_4 9)))
 (let (($x409 (= cell_1_4 8)))
 (let (($x408 (= cell_1_4 7)))
 (let (($x113 (= cell_1_4 6)))
 (let (($x387 (= cell_1_4 5)))
 (let (($x406 (= cell_1_4 4)))
 (let (($x405 (= cell_1_4 3)))
 (let (($x404 (= cell_1_4 2)))
 (let (($x403 (= cell_1_4 1)))
 (or $x403 $x404 $x405 $x406 $x387 $x113 $x408 $x409 $x410)))))))))))
(assert
 (let (($x139 (= cell_2_4 2)))
 (or (= cell_2_4 1) $x139 (= cell_2_4 3) (= cell_2_4 4) (= cell_2_4 5) (= cell_2_4 6) (= cell_2_4 7) (= cell_2_4 8) (= cell_2_4 9))))
(assert
 (let (($x429 (= cell_3_4 9)))
 (let (($x428 (= cell_3_4 8)))
 (let (($x427 (= cell_3_4 7)))
 (let (($x426 (= cell_3_4 6)))
 (let (($x407 (= cell_3_4 5)))
 (let (($x425 (= cell_3_4 4)))
 (let (($x424 (= cell_3_4 3)))
 (let (($x423 (= cell_3_4 2)))
 (let (($x422 (= cell_3_4 1)))
 (or $x422 $x423 $x424 $x425 $x407 $x426 $x427 $x428 $x429)))))))))))
(assert
 (let (($x133 (= cell_4_4 1)))
 (or $x133 (= cell_4_4 2) (= cell_4_4 3) (= cell_4_4 4) (= cell_4_4 5) (= cell_4_4 6) (= cell_4_4 7) (= cell_4_4 8) (= cell_4_4 9))))
(assert
 (let (($x448 (= cell_5_4 9)))
 (let (($x447 (= cell_5_4 8)))
 (let (($x446 (= cell_5_4 7)))
 (let (($x116 (= cell_5_4 6)))
 (let (($x444 (= cell_5_4 5)))
 (let (($x443 (= cell_5_4 4)))
 (let (($x442 (= cell_5_4 3)))
 (let (($x441 (= cell_5_4 2)))
 (let (($x440 (= cell_5_4 1)))
 (or $x440 $x441 $x442 $x443 $x444 $x116 $x446 $x447 $x448)))))))))))
(assert
 (let (($x458 (= cell_6_4 9)))
 (let (($x457 (= cell_6_4 8)))
 (let (($x456 (= cell_6_4 7)))
 (let (($x435 (= cell_6_4 6)))
 (let (($x454 (= cell_6_4 5)))
 (let (($x453 (= cell_6_4 4)))
 (let (($x452 (= cell_6_4 3)))
 (let (($x451 (= cell_6_4 2)))
 (let (($x450 (= cell_6_4 1)))
 (or $x450 $x451 $x452 $x453 $x454 $x435 $x456 $x457 $x458)))))))))))
(assert
 (let (($x468 (= cell_7_4 9)))
 (let (($x467 (= cell_7_4 8)))
 (let (($x466 (= cell_7_4 7)))
 (let (($x445 (= cell_7_4 6)))
 (let (($x464 (= cell_7_4 5)))
 (let (($x463 (= cell_7_4 4)))
 (let (($x462 (= cell_7_4 3)))
 (let (($x461 (= cell_7_4 2)))
 (let (($x460 (= cell_7_4 1)))
 (or $x460 $x461 $x462 $x463 $x464 $x445 $x466 $x467 $x468)))))))))))
(assert
 (let (($x478 (= cell_8_4 9)))
 (let (($x477 (= cell_8_4 8)))
 (let (($x476 (= cell_8_4 7)))
 (let (($x455 (= cell_8_4 6)))
 (let (($x474 (= cell_8_4 5)))
 (let (($x473 (= cell_8_4 4)))
 (let (($x472 (= cell_8_4 3)))
 (let (($x471 (= cell_8_4 2)))
 (let (($x470 (= cell_8_4 1)))
 (or $x470 $x471 $x472 $x473 $x474 $x455 $x476 $x477 $x478)))))))))))
(assert
 (let (($x481 (= cell_9_4 2)))
 (let (($x480 (= cell_9_4 1)))
 (or $x480 $x481 (= cell_9_4 3) (= cell_9_4 4) (= cell_9_4 5) (= cell_9_4 6) (= cell_9_4 7) (= cell_9_4 8) (= cell_9_4 9)))))
(assert
 (let (($x499 (= cell_1_5 9)))
 (let (($x498 (= cell_1_5 8)))
 (let (($x497 (= cell_1_5 7)))
 (let (($x475 (= cell_1_5 6)))
 (let (($x494 (= cell_1_5 5)))
 (let (($x493 (= cell_1_5 4)))
 (let (($x492 (= cell_1_5 3)))
 (let (($x491 (= cell_1_5 2)))
 (let (($x490 (= cell_1_5 1)))
 (or $x490 $x491 $x492 $x493 $x494 $x475 $x497 $x498 $x499)))))))))))
(assert
 (let (($x509 (= cell_2_5 9)))
 (let (($x508 (= cell_2_5 8)))
 (let (($x507 (= cell_2_5 7)))
 (let (($x486 (= cell_2_5 6)))
 (let (($x485 (= cell_2_5 5)))
 (let (($x504 (= cell_2_5 4)))
 (let (($x503 (= cell_2_5 3)))
 (let (($x502 (= cell_2_5 2)))
 (let (($x501 (= cell_2_5 1)))
 (or $x501 $x502 $x503 $x504 $x485 $x486 $x507 $x508 $x509)))))))))))
(assert
 (let (($x519 (= cell_3_5 9)))
 (let (($x518 (= cell_3_5 8)))
 (let (($x928 (= cell_3_5 7)))
 (let (($x496 (= cell_3_5 6)))
 (let (($x495 (= cell_3_5 5)))
 (let (($x514 (= cell_3_5 4)))
 (let (($x513 (= cell_3_5 3)))
 (let (($x512 (= cell_3_5 2)))
 (let (($x511 (= cell_3_5 1)))
 (or $x511 $x512 $x513 $x514 $x495 $x496 $x928 $x518 $x519)))))))))))
(assert
 (let (($x529 (= cell_4_5 9)))
 (let (($x528 (= cell_4_5 8)))
 (let (($x527 (= cell_4_5 7)))
 (let (($x506 (= cell_4_5 6)))
 (let (($x505 (= cell_4_5 5)))
 (let (($x524 (= cell_4_5 4)))
 (let (($x523 (= cell_4_5 3)))
 (let (($x522 (= cell_4_5 2)))
 (let (($x521 (= cell_4_5 1)))
 (or $x521 $x522 $x523 $x524 $x505 $x506 $x527 $x528 $x529)))))))))))
(assert
 (let (($x127 (= cell_5_5 2)))
 (or (= cell_5_5 1) $x127 (= cell_5_5 3) (= cell_5_5 4) (= cell_5_5 5) (= cell_5_5 6) (= cell_5_5 7) (= cell_5_5 8) (= cell_5_5 9))))
(assert
 (let (($x548 (= cell_6_5 9)))
 (let (($x547 (= cell_6_5 8)))
 (let (($x526 (= cell_6_5 7)))
 (let (($x119 (= cell_6_5 6)))
 (let (($x525 (= cell_6_5 5)))
 (let (($x543 (= cell_6_5 4)))
 (let (($x542 (= cell_6_5 3)))
 (let (($x541 (= cell_6_5 2)))
 (let (($x540 (= cell_6_5 1)))
 (or $x540 $x541 $x542 $x543 $x525 $x119 $x526 $x547 $x548)))))))))))
(assert
 (let (($x150 (= cell_7_5 1)))
 (or $x150 (= cell_7_5 2) (= cell_7_5 3) (= cell_7_5 4) (= cell_7_5 5) (= cell_7_5 6) (= cell_7_5 7) (= cell_7_5 8) (= cell_7_5 9))))
(assert
 (let (($x567 (= cell_8_5 9)))
 (let (($x546 (= cell_8_5 8)))
 (let (($x545 (= cell_8_5 7)))
 (let (($x544 (= cell_8_5 6)))
 (let (($x123 (= cell_8_5 5)))
 (let (($x562 (= cell_8_5 4)))
 (let (($x561 (= cell_8_5 3)))
 (let (($x560 (= cell_8_5 2)))
 (let (($x559 (= cell_8_5 1)))
 (or $x559 $x560 $x561 $x562 $x123 $x544 $x545 $x546 $x567)))))))))))
(assert
 (let (($x570 (= cell_9_5 2)))
 (let (($x569 (= cell_9_5 1)))
 (or $x569 $x570 (= cell_9_5 3) (= cell_9_5 4) (= cell_9_5 5) (= cell_9_5 6) (= cell_9_5 7) (= cell_9_5 8) (= cell_9_5 9)))))
(assert
 (let (($x142 (= cell_1_6 1)))
 (or $x142 (= cell_1_6 2) (= cell_1_6 3) (= cell_1_6 4) (= cell_1_6 5) (= cell_1_6 6) (= cell_1_6 7) (= cell_1_6 8) (= cell_1_6 9))))
(assert
 (let (($x575 (= cell_2_6 9)))
 (let (($x574 (= cell_2_6 8)))
 (let (($x573 (= cell_2_6 7)))
 (let (($x111 (= cell_2_6 6)))
 (let (($x591 (= cell_2_6 5)))
 (let (($x590 (= cell_2_6 4)))
 (let (($x589 (= cell_2_6 3)))
 (let (($x588 (= cell_2_6 2)))
 (let (($x587 (= cell_2_6 1)))
 (or $x587 $x588 $x589 $x590 $x591 $x111 $x573 $x574 $x575)))))))))))
(assert
 (let (($x585 (= cell_3_6 9)))
 (let (($x584 (= cell_3_6 8)))
 (let (($x583 (= cell_3_6 7)))
 (let (($x582 (= cell_3_6 6)))
 (let (($x601 (= cell_3_6 5)))
 (let (($x600 (= cell_3_6 4)))
 (let (($x599 (= cell_3_6 3)))
 (let (($x598 (= cell_3_6 2)))
 (let (($x597 (= cell_3_6 1)))
 (or $x597 $x598 $x599 $x600 $x601 $x582 $x583 $x584 $x585)))))))))))
(assert
 (let (($x595 (= cell_4_6 9)))
 (let (($x594 (= cell_4_6 8)))
 (let (($x593 (= cell_4_6 7)))
 (let (($x592 (= cell_4_6 6)))
 (let (($x611 (= cell_4_6 5)))
 (let (($x610 (= cell_4_6 4)))
 (let (($x609 (= cell_4_6 3)))
 (let (($x608 (= cell_4_6 2)))
 (let (($x607 (= cell_4_6 1)))
 (or $x607 $x608 $x609 $x610 $x611 $x592 $x593 $x594 $x595)))))))))))
(assert
 (let (($x618 (= cell_5_6 2)))
 (let (($x617 (= cell_5_6 1)))
 (or $x617 $x618 (= cell_5_6 3) (= cell_5_6 4) (= cell_5_6 5) (= cell_5_6 6) (= cell_5_6 7) (= cell_5_6 8) (= cell_5_6 9)))))
(assert
 (let (($x615 (= cell_6_6 9)))
 (let (($x614 (= cell_6_6 8)))
 (let (($x613 (= cell_6_6 7)))
 (let (($x612 (= cell_6_6 6)))
 (let (($x631 (= cell_6_6 5)))
 (let (($x630 (= cell_6_6 4)))
 (let (($x629 (= cell_6_6 3)))
 (let (($x628 (= cell_6_6 2)))
 (let (($x627 (= cell_6_6 1)))
 (or $x627 $x628 $x629 $x630 $x631 $x612 $x613 $x614 $x615)))))))))))
(assert
 (let (($x625 (= cell_7_6 9)))
 (let (($x624 (= cell_7_6 8)))
 (let (($x623 (= cell_7_6 7)))
 (let (($x622 (= cell_7_6 6)))
 (let (($x641 (= cell_7_6 5)))
 (let (($x640 (= cell_7_6 4)))
 (let (($x639 (= cell_7_6 3)))
 (let (($x638 (= cell_7_6 2)))
 (let (($x637 (= cell_7_6 1)))
 (or $x637 $x638 $x639 $x640 $x641 $x622 $x623 $x624 $x625)))))))))))
(assert
 (let (($x636 (= cell_8_6 9)))
 (let (($x635 (= cell_8_6 8)))
 (let (($x634 (= cell_8_6 7)))
 (let (($x633 (= cell_8_6 6)))
 (let (($x632 (= cell_8_6 5)))
 (let (($x651 (= cell_8_6 4)))
 (let (($x650 (= cell_8_6 3)))
 (let (($x649 (= cell_8_6 2)))
 (let (($x648 (= cell_8_6 1)))
 (or $x648 $x649 $x650 $x651 $x632 $x633 $x634 $x635 $x636)))))))))))
(assert
 (let (($x938 (= cell_9_6 1)))
 (or $x938 (= cell_9_6 2) (= cell_9_6 3) (= cell_9_6 4) (= cell_9_6 5) (= cell_9_6 6) (= cell_9_6 7) (= cell_9_6 8) (= cell_9_6 9))))
(assert
 (let (($x656 (= cell_1_7 9)))
 (let (($x655 (= cell_1_7 8)))
 (let (($x654 (= cell_1_7 7)))
 (let (($x653 (= cell_1_7 6)))
 (let (($x652 (= cell_1_7 5)))
 (let (($x671 (= cell_1_7 4)))
 (let (($x670 (= cell_1_7 3)))
 (let (($x669 (= cell_1_7 2)))
 (let (($x668 (= cell_1_7 1)))
 (or $x668 $x669 $x670 $x671 $x652 $x653 $x654 $x655 $x656)))))))))))
(assert
 (let (($x666 (= cell_2_7 9)))
 (let (($x665 (= cell_2_7 8)))
 (let (($x664 (= cell_2_7 7)))
 (let (($x663 (= cell_2_7 6)))
 (let (($x662 (= cell_2_7 5)))
 (let (($x681 (= cell_2_7 4)))
 (let (($x680 (= cell_2_7 3)))
 (let (($x679 (= cell_2_7 2)))
 (let (($x678 (= cell_2_7 1)))
 (or $x678 $x679 $x680 $x681 $x662 $x663 $x664 $x665 $x666)))))))))))
(assert
 (let (($x676 (= cell_3_7 9)))
 (let (($x675 (= cell_3_7 8)))
 (let (($x674 (= cell_3_7 7)))
 (let (($x673 (= cell_3_7 6)))
 (let (($x672 (= cell_3_7 5)))
 (let (($x691 (= cell_3_7 4)))
 (let (($x690 (= cell_3_7 3)))
 (let (($x689 (= cell_3_7 2)))
 (let (($x688 (= cell_3_7 1)))
 (or $x688 $x689 $x690 $x691 $x672 $x673 $x674 $x675 $x676)))))))))))
(assert
 (let (($x686 (= cell_4_7 9)))
 (let (($x685 (= cell_4_7 8)))
 (let (($x684 (= cell_4_7 7)))
 (let (($x683 (= cell_4_7 6)))
 (let (($x682 (= cell_4_7 5)))
 (let (($x701 (= cell_4_7 4)))
 (let (($x700 (= cell_4_7 3)))
 (let (($x699 (= cell_4_7 2)))
 (let (($x698 (= cell_4_7 1)))
 (or $x698 $x699 $x700 $x701 $x682 $x683 $x684 $x685 $x686)))))))))))
(assert
 (let (($x696 (= cell_5_7 9)))
 (let (($x695 (= cell_5_7 8)))
 (let (($x694 (= cell_5_7 7)))
 (let (($x693 (= cell_5_7 6)))
 (let (($x692 (= cell_5_7 5)))
 (let (($x711 (= cell_5_7 4)))
 (let (($x710 (= cell_5_7 3)))
 (let (($x709 (= cell_5_7 2)))
 (let (($x931 (= cell_5_7 1)))
 (or $x931 $x709 $x710 $x711 $x692 $x693 $x694 $x695 $x696)))))))))))
(assert
 (let (($x707 (= cell_6_7 9)))
 (let (($x706 (= cell_6_7 8)))
 (let (($x705 (= cell_6_7 7)))
 (let (($x704 (= cell_6_7 6)))
 (let (($x703 (= cell_6_7 5)))
 (let (($x702 (= cell_6_7 4)))
 (let (($x721 (= cell_6_7 3)))
 (let (($x720 (= cell_6_7 2)))
 (let (($x719 (= cell_6_7 1)))
 (or $x719 $x720 $x721 $x702 $x703 $x704 $x705 $x706 $x707)))))))))))
(assert
 (let (($x717 (= cell_7_7 9)))
 (let (($x716 (= cell_7_7 8)))
 (let (($x715 (= cell_7_7 7)))
 (let (($x714 (= cell_7_7 6)))
 (let (($x713 (= cell_7_7 5)))
 (let (($x712 (= cell_7_7 4)))
 (let (($x731 (= cell_7_7 3)))
 (let (($x730 (= cell_7_7 2)))
 (let (($x729 (= cell_7_7 1)))
 (or $x729 $x730 $x731 $x712 $x713 $x714 $x715 $x716 $x717)))))))))))
(assert
 (let (($x149 (= cell_8_7 1)))
 (or $x149 (= cell_8_7 2) (= cell_8_7 3) (= cell_8_7 4) (= cell_8_7 5) (= cell_8_7 6) (= cell_8_7 7) (= cell_8_7 8) (= cell_8_7 9))))
(assert
 (let (($x939 (= cell_9_7 1)))
 (or $x939 (= cell_9_7 2) (= cell_9_7 3) (= cell_9_7 4) (= cell_9_7 5) (= cell_9_7 6) (= cell_9_7 7) (= cell_9_7 8) (= cell_9_7 9))))
(assert
 (let (($x746 (= cell_1_8 9)))
 (let (($x745 (= cell_1_8 8)))
 (let (($x744 (= cell_1_8 7)))
 (let (($x743 (= cell_1_8 6)))
 (let (($x742 (= cell_1_8 5)))
 (let (($x741 (= cell_1_8 4)))
 (let (($x760 (= cell_1_8 3)))
 (let (($x759 (= cell_1_8 2)))
 (let (($x758 (= cell_1_8 1)))
 (or $x758 $x759 $x760 $x741 $x742 $x743 $x744 $x745 $x746)))))))))))
(assert
 (let (($x756 (= cell_2_8 9)))
 (let (($x755 (= cell_2_8 8)))
 (let (($x754 (= cell_2_8 7)))
 (let (($x753 (= cell_2_8 6)))
 (let (($x752 (= cell_2_8 5)))
 (let (($x751 (= cell_2_8 4)))
 (let (($x770 (= cell_2_8 3)))
 (let (($x769 (= cell_2_8 2)))
 (let (($x768 (= cell_2_8 1)))
 (or $x768 $x769 $x770 $x751 $x752 $x753 $x754 $x755 $x756)))))))))))
(assert
 (let (($x137 (= cell_3_8 1)))
 (or $x137 (= cell_3_8 2) (= cell_3_8 3) (= cell_3_8 4) (= cell_3_8 5) (= cell_3_8 6) (= cell_3_8 7) (= cell_3_8 8) (= cell_3_8 9))))
(assert
 (let (($x131 (= cell_4_8 2)))
 (or (= cell_4_8 1) $x131 (= cell_4_8 3) (= cell_4_8 4) (= cell_4_8 5) (= cell_4_8 6) (= cell_4_8 7) (= cell_4_8 8) (= cell_4_8 9))))
(assert
 (let (($x782 (= cell_5_8 9)))
 (let (($x781 (= cell_5_8 8)))
 (let (($x117 (= cell_5_8 7)))
 (let (($x780 (= cell_5_8 6)))
 (let (($x798 (= cell_5_8 5)))
 (let (($x797 (= cell_5_8 4)))
 (let (($x796 (= cell_5_8 3)))
 (let (($x776 (= cell_5_8 2)))
 (let (($x775 (= cell_5_8 1)))
 (or $x775 $x776 $x796 $x797 $x798 $x780 $x117 $x781 $x782)))))))))))
(assert
 (let (($x792 (= cell_6_8 9)))
 (let (($x791 (= cell_6_8 8)))
 (let (($x790 (= cell_6_8 7)))
 (let (($x789 (= cell_6_8 6)))
 (let (($x808 (= cell_6_8 5)))
 (let (($x807 (= cell_6_8 4)))
 (let (($x933 (= cell_6_8 3)))
 (let (($x785 (= cell_6_8 2)))
 (let (($x784 (= cell_6_8 1)))
 (or $x784 $x785 $x933 $x807 $x808 $x789 $x790 $x791 $x792)))))))))))
(assert
 (let (($x803 (= cell_7_8 9)))
 (let (($x802 (= cell_7_8 8)))
 (let (($x801 (= cell_7_8 7)))
 (let (($x800 (= cell_7_8 6)))
 (let (($x799 (= cell_7_8 5)))
 (let (($x818 (= cell_7_8 4)))
 (let (($x817 (= cell_7_8 3)))
 (let (($x795 (= cell_7_8 2)))
 (let (($x794 (= cell_7_8 1)))
 (or $x794 $x795 $x817 $x818 $x799 $x800 $x801 $x802 $x803)))))))))))
(assert
 (let (($x806 (= cell_8_8 2)))
 (let (($x805 (= cell_8_8 1)))
 (or $x805 $x806 (= cell_8_8 3) (= cell_8_8 4) (= cell_8_8 5) (= cell_8_8 6) (= cell_8_8 7) (= cell_8_8 8) (= cell_8_8 9)))))
(assert
 (let (($x816 (= cell_9_8 2)))
 (let (($x815 (= cell_9_8 1)))
 (or $x815 $x816 (= cell_9_8 3) (= cell_9_8 4) (= cell_9_8 5) (= cell_9_8 6) (= cell_9_8 7) (= cell_9_8 8) (= cell_9_8 9)))))
(assert
 (let (($x833 (= cell_1_9 9)))
 (let (($x832 (= cell_1_9 8)))
 (let (($x831 (= cell_1_9 7)))
 (let (($x830 (= cell_1_9 6)))
 (let (($x829 (= cell_1_9 5)))
 (let (($x15 (= cell_1_9 4)))
 (let (($x848 (= cell_1_9 3)))
 (let (($x826 (= cell_1_9 2)))
 (let (($x825 (= cell_1_9 1)))
 (or $x825 $x826 $x848 $x15 $x829 $x830 $x831 $x832 $x833)))))))))))
(assert
 (let (($x844 (= cell_2_9 9)))
 (let (($x843 (= cell_2_9 8)))
 (let (($x842 (= cell_2_9 7)))
 (let (($x841 (= cell_2_9 6)))
 (let (($x840 (= cell_2_9 5)))
 (let (($x839 (= cell_2_9 4)))
 (let (($x917 (= cell_2_9 3)))
 (let (($x836 (= cell_2_9 2)))
 (let (($x835 (= cell_2_9 1)))
 (or $x835 $x836 $x917 $x839 $x840 $x841 $x842 $x843 $x844)))))))))))
(assert
 (let (($x135 (= cell_3_9 2)))
 (or (= cell_3_9 1) $x135 (= cell_3_9 3) (= cell_3_9 4) (= cell_3_9 5) (= cell_3_9 6) (= cell_3_9 7) (= cell_3_9 8) (= cell_3_9 9))))
(assert
 (let (($x863 (= cell_4_9 9)))
 (let (($x862 (= cell_4_9 8)))
 (let (($x861 (= cell_4_9 7)))
 (let (($x860 (= cell_4_9 6)))
 (let (($x929 (= cell_4_9 5)))
 (let (($x115 (= cell_4_9 4)))
 (let (($x858 (= cell_4_9 3)))
 (let (($x857 (= cell_4_9 2)))
 (let (($x856 (= cell_4_9 1)))
 (or $x856 $x857 $x858 $x115 $x929 $x860 $x861 $x862 $x863)))))))))))
(assert
 (let (($x874 (= cell_5_9 9)))
 (let (($x873 (= cell_5_9 8)))
 (let (($x872 (= cell_5_9 7)))
 (let (($x871 (= cell_5_9 6)))
 (let (($x870 (= cell_5_9 5)))
 (let (($x869 (= cell_5_9 4)))
 (let (($x867 (= cell_5_9 3)))
 (let (($x866 (= cell_5_9 2)))
 (let (($x865 (= cell_5_9 1)))
 (or $x865 $x866 $x867 $x869 $x870 $x871 $x872 $x873 $x874)))))))))))
(assert
 (let (($x152 (= cell_6_9 1)))
 (or $x152 (= cell_6_9 2) (= cell_6_9 3) (= cell_6_9 4) (= cell_6_9 5) (= cell_6_9 6) (= cell_6_9 7) (= cell_6_9 8) (= cell_6_9 9))))
(assert
 (let (($x892 (= cell_7_9 9)))
 (let (($x891 (= cell_7_9 8)))
 (let (($x890 (= cell_7_9 7)))
 (let (($x889 (= cell_7_9 6)))
 (let (($x888 (= cell_7_9 5)))
 (let (($x868 (= cell_7_9 4)))
 (let (($x887 (= cell_7_9 3)))
 (let (($x886 (= cell_7_9 2)))
 (let (($x885 (= cell_7_9 1)))
 (or $x885 $x886 $x887 $x868 $x888 $x889 $x890 $x891 $x892)))))))))))
(assert
 (let (($x895 (= cell_8_9 2)))
 (let (($x894 (= cell_8_9 1)))
 (or $x894 $x895 (= cell_8_9 3) (= cell_8_9 4) (= cell_8_9 5) (= cell_8_9 6) (= cell_8_9 7) (= cell_8_9 8) (= cell_8_9 9)))))
(assert
 (let (($x905 (= cell_9_9 2)))
 (let (($x904 (= cell_9_9 1)))
 (or $x904 $x905 (= cell_9_9 3) (= cell_9_9 4) (= cell_9_9 5) (= cell_9_9 6) (= cell_9_9 7) (= cell_9_9 8) (= cell_9_9 9)))))
(assert
 (and (distinct cell_1_1 cell_1_2 cell_1_3 cell_1_4 cell_1_5 cell_1_6 cell_1_7 cell_1_8 cell_1_9) true))
(assert
 (and (distinct cell_2_1 cell_2_2 cell_2_3 cell_2_4 cell_2_5 cell_2_6 cell_2_7 cell_2_8 cell_2_9) true))
(assert
 (and (distinct cell_3_1 cell_3_2 cell_3_3 cell_3_4 cell_3_5 cell_3_6 cell_3_7 cell_3_8 cell_3_9) true))
(assert
 (and (distinct cell_4_1 cell_4_2 cell_4_3 cell_4_4 cell_4_5 cell_4_6 cell_4_7 cell_4_8 cell_4_9) true))
(assert
 (and (distinct cell_5_1 cell_5_2 cell_5_3 cell_5_4 cell_5_5 cell_5_6 cell_5_7 cell_5_8 cell_5_9) true))
(assert
 (and (distinct cell_6_1 cell_6_2 cell_6_3 cell_6_4 cell_6_5 cell_6_6 cell_6_7 cell_6_8 cell_6_9) true))
(assert
 (and (distinct cell_7_1 cell_7_2 cell_7_3 cell_7_4 cell_7_5 cell_7_6 cell_7_7 cell_7_8 cell_7_9) true))
(assert
 (and (distinct cell_8_1 cell_8_2 cell_8_3 cell_8_4 cell_8_5 cell_8_6 cell_8_7 cell_8_8 cell_8_9) true))
(assert
 (and (distinct cell_9_1 cell_9_2 cell_9_3 cell_9_4 cell_9_5 cell_9_6 cell_9_7 cell_9_8 cell_9_9) true))
(assert
 (and (distinct cell_1_1 cell_2_1 cell_3_1 cell_4_1 cell_5_1 cell_6_1 cell_7_1 cell_8_1 cell_9_1) true))
(assert
 (and (distinct cell_1_2 cell_2_2 cell_3_2 cell_4_2 cell_5_2 cell_6_2 cell_7_2 cell_8_2 cell_9_2) true))
(assert
 (and (distinct cell_1_3 cell_2_3 cell_3_3 cell_4_3 cell_5_3 cell_6_3 cell_7_3 cell_8_3 cell_9_3) true))
(assert
 (and (distinct cell_1_4 cell_2_4 cell_3_4 cell_4_4 cell_5_4 cell_6_4 cell_7_4 cell_8_4 cell_9_4) true))
(assert
 (and (distinct cell_1_5 cell_2_5 cell_3_5 cell_4_5 cell_5_5 cell_6_5 cell_7_5 cell_8_5 cell_9_5) true))
(assert
 (and (distinct cell_1_6 cell_2_6 cell_3_6 cell_4_6 cell_5_6 cell_6_6 cell_7_6 cell_8_6 cell_9_6) true))
(assert
 (and (distinct cell_1_7 cell_2_7 cell_3_7 cell_4_7 cell_5_7 cell_6_7 cell_7_7 cell_8_7 cell_9_7) true))
(assert
 (and (distinct cell_1_8 cell_2_8 cell_3_8 cell_4_8 cell_5_8 cell_6_8 cell_7_8 cell_8_8 cell_9_8) true))
(assert
 (and (distinct cell_1_9 cell_2_9 cell_3_9 cell_4_9 cell_5_9 cell_6_9 cell_7_9 cell_8_9 cell_9_9) true))
(assert
 (and (distinct cell_1_1 cell_1_2 cell_1_3 cell_2_1 cell_2_2 cell_2_3 cell_3_1 cell_3_2 cell_3_3) true))
(assert
 (and (distinct cell_1_4 cell_1_5 cell_1_6 cell_2_4 cell_2_5 cell_2_6 cell_3_4 cell_3_5 cell_3_6) true))
(assert
 (and (distinct cell_1_7 cell_1_8 cell_1_9 cell_2_7 cell_2_8 cell_2_9 cell_3_7 cell_3_8 cell_3_9) true))
(assert
 (and (distinct cell_4_1 cell_4_2 cell_4_3 cell_5_1 cell_5_2 cell_5_3 cell_6_1 cell_6_2 cell_6_3) true))
(assert
 (and (distinct cell_4_4 cell_4_5 cell_4_6 cell_5_4 cell_5_5 cell_5_6 cell_6_4 cell_6_5 cell_6_6) true))
(assert
 (and (distinct cell_4_7 cell_4_8 cell_4_9 cell_5_7 cell_5_8 cell_5_9 cell_6_7 cell_6_8 cell_6_9) true))
(assert
 (and (distinct cell_7_1 cell_7_2 cell_7_3 cell_8_1 cell_8_2 cell_8_3 cell_9_1 cell_9_2 cell_9_3) true))
(assert
 (and (distinct cell_7_4 cell_7_5 cell_7_6 cell_8_4 cell_8_5 cell_8_6 cell_9_4 cell_9_5 cell_9_6) true))
(assert
 (and (distinct cell_7_7 cell_7_8 cell_7_9 cell_8_7 cell_8_8 cell_8_9 cell_9_7 cell_9_8 cell_9_9) true))
(assert
 (let (($x2680 (and (distinct cell_5_9 cell_6_8 cell_7_7 cell_8_6) true)))
 (let (($x1039 (and (distinct cell_2_9 cell_3_8 cell_4_7 cell_5_6 cell_6_5 cell_7_4 cell_8_3 cell_9_2) true)))
 (let (($x96 (and (distinct cell_1_8 cell_2_7 cell_3_6 cell_4_5 cell_5_4 cell_6_3 cell_7_2 cell_8_1) true)))
 (let (($x2884 (and (distinct cell_1_5 cell_2_4 cell_3_3 cell_4_2) true)))
 (let (($x2679 (and (distinct cell_5_1 cell_6_2 cell_7_3 cell_8_4) true)))
 (let (($x95 (and (distinct cell_2_1 cell_3_2 cell_4_3 cell_5_4 cell_6_5 cell_7_6 cell_8_7 cell_9_8) true)))
 (let (($x2882 (and (distinct cell_1_2 cell_2_3 cell_3_4 cell_4_5 cell_5_6 cell_6_7 cell_7_8 cell_8_9) true)))
 (let (($x2885 (and (distinct cell_1_5 cell_2_6 cell_3_7 cell_4_8) true)))
 (and $x2885 $x2882 $x95 $x2679 $x2884 $x96 $x1039 $x2680))))))))))
(assert
 (= cell_8_6 2))
(check-sat)
